Instance: E076-14s.dat
Class:  1
75 --- number of customers (no depot)
14 --- number of vehicles
75 --- number of items
Capacity - height - width of vehicles
   100     40     20
Node - x - y - demand  Readytime Duetime
  0.00   40.00  40.00   0.00 0       256.00       
  1.00   22.00  22.00  18.00 176.00  185.00       
  2.00   36.00  26.00  26.00  34.00   43.00       
  3.00   21.00  45.00  11.00 154.00  166.00       
  4.00   45.00  35.00  30.00 108.00  115.00       
  5.00   55.00  20.00  21.00 149.00  167.00       
  6.00   33.00  34.00  19.00  59.00   67.00       
  7.00   50.00  50.00  15.00 106.00  116.00       
  8.00   55.00  45.00  16.00  76.00   85.00       
  9.00   26.00  59.00  29.00  12.00   43.00       
 10.00   40.00  66.00  26.00  43.00   63.00       
 11.00   55.00  65.00  37.00 132.00  146.00       
 12.00   35.00  51.00  16.00  91.00   99.00       
 13.00   62.00  35.00  12.00 104.00  124.00       
 14.00   62.00  57.00  31.00 165.00  184.00       
 15.00   62.00  24.00   8.00  19.00   43.00       
 16.00   21.00  36.00  19.00 117.00  124.00       
 17.00   33.00  44.00  20.00 166.00  171.00       
 18.00    9.00  56.00  13.00 120.00  140.00       
 19.00   62.00  48.00  15.00 140.00  154.00       
 20.00   66.00  14.00  22.00 101.00  118.00       
 21.00   44.00  13.00  28.00 158.00  171.00       
 22.00   26.00  13.00  12.00   8.00   43.00       
 23.00   11.00  28.00   6.00  47.00   67.00       
 24.00    7.00  43.00  27.00  48.00   64.00       
 25.00   17.00  64.00  14.00 108.00  117.00       
 26.00   41.00  46.00  18.00 134.00  149.00       
 27.00   55.00  34.00  17.00  71.00   83.00       
 28.00   35.00  16.00  29.00  21.00   43.00       
 29.00   52.00  26.00  13.00 112.00  123.00       
 30.00   43.00  26.00  22.00  56.00   61.00       
 31.00   31.00  76.00  25.00 163.00  172.00       
 32.00   22.00  53.00  28.00  38.00   53.00       
 33.00   26.00  29.00  27.00 127.00  140.00       
 34.00   50.00  40.00  19.00  63.00   70.00       
 35.00   55.00  50.00  10.00  94.00  103.00       
 36.00   54.00  10.00  12.00  54.00   60.00       
 37.00   60.00  15.00  14.00  92.00  108.00       
 38.00   47.00  66.00  24.00 106.00  114.00       
 39.00   30.00  60.00  16.00 159.00  177.00       
 40.00   30.00  50.00  33.00  91.00  106.00       
 41.00   12.00  17.00  15.00  21.00   43.00       
 42.00   15.00  14.00  11.00 138.00  143.00       
 43.00   16.00  19.00  18.00  46.00   63.00       
 44.00   21.00  48.00  17.00 132.00  137.00       
 45.00   50.00  30.00  21.00 132.00  143.00       
 46.00   51.00  42.00  27.00 168.00  175.00       
 47.00   50.00  15.00  19.00  41.00   49.00       
 48.00   48.00  21.00  20.00  90.00   97.00       
 49.00   12.00  38.00   5.00 167.00  173.00       
 50.00   15.00  56.00  22.00  16.00   43.00       
 51.00   29.00  39.00  12.00  61.00   66.00       
 52.00   54.00  38.00  19.00  33.00   43.00       
 53.00   55.00  57.00  22.00  17.00   43.00       
 54.00   67.00  41.00  16.00  57.00   69.00       
 55.00   10.00  70.00   7.00 120.00  129.00       
 56.00    6.00  25.00  26.00  61.00   80.00       
 57.00   65.00  27.00  14.00 108.00  113.00       
 58.00   40.00  60.00  21.00 116.00  125.00       
 59.00   70.00  64.00  24.00  37.00   44.00       
 60.00   64.00   4.00  13.00  37.00   46.00       
 61.00   36.00   6.00  15.00 123.00  130.00       
 62.00   30.00  20.00  18.00  89.00   98.00       
 63.00   20.00  30.00  11.00  30.00   43.00       
 64.00   15.00   5.00  28.00  88.00  108.00       
 65.00   50.00  70.00   9.00 119.00  130.00       
 66.00   57.00  72.00  37.00  50.00   60.00       
 67.00   45.00  42.00  30.00 152.00  159.00       
 68.00   38.00  33.00  10.00 105.00  110.00       
 69.00   50.00   4.00   8.00  22.00   43.00       
 70.00   66.00   8.00  11.00  40.00   45.00       
 71.00   59.00   5.00   3.00  81.00   87.00       
 72.00   35.00  60.00   1.00  47.00   65.00       
 73.00   27.00  24.00   6.00 131.00  147.00       
 74.00   40.00  20.00  10.00 161.00  178.00       
 75.00   40.00  37.00  20.00  42.00   51.00 
Node - number of items - h - w for each item
    0   0
    1   1    1    1
    2   1    1    1
    3   1    1    1
    4   1    1    1
    5   1    1    1
    6   1    1    1
    7   1    1    1
    8   1    1    1
    9   1    1    1
   10   1    1    1
   11   1    1    1
   12   1    1    1
   13   1    1    1
   14   1    1    1
   15   1    1    1
   16   1    1    1
   17   1    1    1
   18   1    1    1
   19   1    1    1
   20   1    1    1
   21   1    1    1
   22   1    1    1
   23   1    1    1
   24   1    1    1
   25   1    1    1
   26   1    1    1
   27   1    1    1
   28   1    1    1
   29   1    1    1
   30   1    1    1
   31   1    1    1
   32   1    1    1
   33   1    1    1
   34   1    1    1
   35   1    1    1
   36   1    1    1
   37   1    1    1
   38   1    1    1
   39   1    1    1
   40   1    1    1
   41   1    1    1
   42   1    1    1
   43   1    1    1
   44   1    1    1
   45   1    1    1
   46   1    1    1
   47   1    1    1
   48   1    1    1
   49   1    1    1
   50   1    1    1
   51   1    1    1
   52   1    1    1
   53   1    1    1
   54   1    1    1
   55   1    1    1
   56   1    1    1
   57   1    1    1
   58   1    1    1
   59   1    1    1
   60   1    1    1
   61   1    1    1
   62   1    1    1
   63   1    1    1
   64   1    1    1
   65   1    1    1
   66   1    1    1
   67   1    1    1
   68   1    1    1
   69   1    1    1
   70   1    1    1
   71   1    1    1
   72   1    1    1
   73   1    1    1
   74   1    1    1
   75   1    1    1


